Generated by cif2cell 2.1.0.  :  Vanhoyland, G. et al., Journal of Solid State Chemistry 157, 283-288 (2001).
   6.341000
  1.000000000000000   0.000000000000000   0.000000000000000
  0.000000000000000   2.662040687588708   0.000000000000000
 -0.120551251286566   0.000000000000000   0.903489604091762
  Sr   D   C   O
   4  12  12  28
Direct
  0.878600000000000   0.418400000000000   0.738500000000000 
  0.378600000000000   0.081600000000000   0.238500000000000 
  0.621400000000000   0.918400000000000   0.761500000000000 
  0.121400000000000   0.581600000000000   0.261500000000000 
  0.780400000000000   0.070000000000000   0.021900000000000 
  0.280400000000000   0.430000000000000   0.521900000000000 
  0.719600000000000   0.570000000000000   0.478100000000000 
  0.219600000000000   0.930000000000000   0.978100000000000 
  0.631700000000000   0.104100000000000   0.801900000000000 
  0.131700000000000   0.395900000000000   0.301900000000000 
  0.868300000000000   0.604100000000000   0.698100000000000 
  0.368300000000000   0.895900000000000   0.198100000000000 
  0.147300000000000   0.245600000000000   0.502700000000000 
  0.647300000000000   0.254400000000000   0.002700000000000 
  0.352700000000000   0.745600000000000   0.997300000000000 
  0.852700000000000   0.754400000000000   0.497300000000000 
  0.630000000000000   0.238400000000000   0.576500000000000 
  0.130000000000000   0.261600000000000   0.076500000000000 
  0.870000000000000   0.738400000000000   0.923500000000000 
  0.370000000000000   0.761600000000000   0.423500000000000 
  0.584900000000000   0.517700000000000   0.091200000000000 
  0.084900000000000   0.982300000000000   0.591200000000000 
  0.915100000000000   0.017700000000000   0.408800000000000 
  0.415100000000000   0.482300000000000   0.908800000000000 
  0.649500000000000   0.279000000000000   0.337800000000000 
  0.149500000000000   0.221000000000000   0.837800000000000 
  0.850500000000000   0.779000000000000   0.162200000000000 
  0.350500000000000   0.721000000000000   0.662200000000000 
  0.617100000000000   0.229000000000000   0.159700000000000 
  0.117100000000000   0.271000000000000   0.659700000000000 
  0.882900000000000   0.729000000000000   0.340300000000000 
  0.382900000000000   0.771000000000000   0.840300000000000 
  0.674900000000000   0.281300000000000   0.753200000000000 
  0.174900000000000   0.218700000000000   0.253200000000000 
  0.825100000000000   0.781300000000000   0.746800000000000 
  0.325100000000000   0.718700000000000   0.246800000000000 
  0.861300000000000   0.563000000000000   0.571500000000000 
  0.361300000000000   0.937000000000000   0.071500000000000 
  0.638700000000000   0.063000000000000   0.928500000000000 
  0.138700000000000   0.437000000000000   0.428500000000000 
  0.775900000000000   0.507200000000000   0.067900000000000 
  0.275900000000000   0.992800000000000   0.567900000000000 
  0.724100000000000   0.007200000000000   0.432100000000000 
  0.224100000000000   0.492800000000000   0.932100000000000 
  0.573400000000000   0.168200000000000   0.566100000000000 
  0.073400000000000   0.331800000000000   0.066100000000000 
  0.926600000000000   0.668200000000000   0.933900000000000 
  0.426600000000000   0.831800000000000   0.433900000000000 
  0.513900000000000   0.554900000000000   0.261200000000000 
  0.013900000000000   0.945100000000000   0.761200000000000 
  0.986100000000000   0.054900000000000   0.238800000000000 
  0.486100000000000   0.445100000000000   0.738800000000000 
  0.697800000000000   0.349300000000000   0.331500000000000 
  0.197800000000000   0.150700000000000   0.831500000000000 
  0.802200000000000   0.849300000000000   0.168500000000000 
  0.302200000000000   0.650700000000000   0.668500000000000 
