Generated by cif2cell 2.1.0. Ca4 Al2 (O H)12 (C O3) (H2 O)5 :  Francois, M et al., Acta Crystallographica C (39,1983-) 54, 1214-1217 (1998).
   5.774700
  1.000000000000000   0.000000000000000   0.000000000000000
  0.218542131828153   1.450177646110500   0.000000000000000
  0.216854965753171   0.708045552201035   1.550612291933343
   O   C   H  Al  Ca
  20   1  22   2   4
Direct
  0.153700000000000   0.211200000000000   0.921500000000000 
  0.847400000000000   0.789600000000000   0.080800000000000 
  0.306400000000000   0.891000000000000   0.979000000000000 
  0.695300000000000   0.115000000000000   0.018500000000000 
  0.345200000000000   0.292500000000000   0.578400000000000 
  0.641600000000000   0.718600000000000   0.425900000000000 
  0.798500000000000   0.394500000000000   0.485700000000000 
  0.186200000000000   0.612900000000000   0.526200000000000 
  0.067800000000000   0.933600000000000   0.202500000000000 
  0.930100000000000   0.067600000000000   0.799800000000000 
  0.427100000000000   0.574300000000000   0.301200000000000 
  0.564000000000000   0.434700000000000   0.706200000000000 
  0.588700000000000   0.901800000000000   0.686600000000000 
  0.408400000000000   0.105500000000000   0.308800000000000 
  0.911200000000000   0.600100000000000   0.814300000000000 
  0.343600000000000   0.556200000000000   0.953100000000000 
  0.122100000000000   0.943300000000000   0.559600000000000 
  0.756500000000000   0.412600000000000   0.090400000000000 
  0.076700000000000   0.395200000000000   0.203700000000000 
  0.824800000000000   0.192900000000000   0.311800000000000 
  0.885200000000000   0.333333333333333   0.201600000000000 
  0.181000000000000   0.241000000000000   0.992000000000000 
  0.842000000000000   0.719000000000000   0.032000000000000 
  0.309000000000000   0.807000000000000   0.942000000000000 
  0.690000000000000   0.218000000000000   0.022000000000000 
  0.347000000000000   0.225000000000000   0.526000000000000 
  0.664000000000000   0.746000000000000   0.503000000000000 
  0.798000000000000   0.314000000000000   0.445000000000000 
  0.173000000000000   0.724000000000000   0.519000000000000 
  0.004000000000000   0.968000000000000   0.277000000000000 
  0.025000000000000   0.005000000000000   0.755000000000000 
  0.502000000000000   0.499000000000000   0.268000000000000 
  0.504000000000000   0.468000000000000   0.782000000000000 
  0.676000000000000   0.798000000000000   0.736000000000000 
  0.430000000000000   0.853000000000000   0.695000000000000 
  0.308000000000000   0.205000000000000   0.268000000000000 
  0.543000000000000   0.143000000000000   0.313000000000000 
  0.049000000000000   0.627000000000000   0.817000000000000 
  0.872000000000000   0.534000000000000   0.914000000000000 
  0.490000000000000   0.490000000000000   0.996000000000000 
  0.233000000000000   0.496000000000000   0.032000000000000 
  0.978000000000000   0.983000000000000   0.519000000000000 
  0.241000000000000   0.988000000000000   0.488000000000000 
  0.000000000000000   0.000210000000000  -0.000180000000000 
  0.492900000000000   0.506130000000000   0.503490000000000 
  0.518590000000000   0.120260000000000   0.805130000000000 
  0.479780000000000   0.888200000000000   0.192880000000000 
  0.014180000000000   0.621380000000000   0.309790000000000 
  0.977000000000000   0.381220000000000   0.695250000000000 
