Generated by cif2cell 2.1.0.  :  Phan Thanh, S. et al., Acta Crystallographica, Section C 56, 1073-1074 (2000).
   7.878300
  1.000000000000000   0.000000000000000   0.000000000000000
  0.000000000000000   1.328827285074191   0.000000000000000
 -0.182968604311636   0.000000000000000   2.031302535987107
   H   O   P   N   C  Al
  68  32   8   8  20   4
Direct
  0.712300000000000   0.757100000000000   0.935100000000000 
  0.212300000000000   0.742900000000000   0.435100000000000 
  0.787700000000000   0.257100000000000   0.564900000000000 
  0.287700000000000   0.242900000000000   0.064900000000000 
  0.493400000000000   0.405300000000000   0.113300000000000 
  0.993400000000000   0.094700000000000   0.613300000000000 
  0.006600000000000   0.905300000000000   0.386700000000000 
  0.506600000000000   0.594700000000000   0.886700000000000 
  0.570400000000000   0.530900000000000   0.125400000000000 
  0.070400000000000   0.969100000000000   0.625400000000000 
  0.929600000000000   0.030900000000000   0.374600000000000 
  0.429600000000000   0.469100000000000   0.874600000000000 
  0.528800000000000   0.456500000000000   0.197200000000000 
  0.028800000000000   0.043500000000000   0.697200000000000 
  0.971200000000000   0.956500000000000   0.302800000000000 
  0.471200000000000   0.543500000000000   0.802800000000000 
  0.784000000000000   0.403800000000000   0.098400000000000 
  0.284000000000000   0.096200000000000   0.598400000000000 
  0.716000000000000   0.903800000000000   0.401600000000000 
  0.216000000000000   0.596200000000000   0.901600000000000 
  0.725800000000000   0.302800000000000   0.161800000000000 
  0.225800000000000   0.197200000000000   0.661800000000000 
  0.774200000000000   0.802800000000000   0.338200000000000 
  0.274200000000000   0.697200000000000   0.838200000000000 
  0.822500000000000   0.427100000000000   0.273200000000000 
  0.322500000000000   0.072900000000000   0.773200000000000 
  0.677500000000000   0.927100000000000   0.226800000000000 
  0.177500000000000   0.572900000000000   0.726800000000000 
  0.970900000000000   0.407100000000000   0.216200000000000 
  0.470900000000000   0.092900000000000   0.716200000000000 
  0.529100000000000   0.907100000000000   0.283800000000000 
  0.029100000000000   0.592900000000000   0.783800000000000 
  0.791200000000000   0.629000000000000   0.239500000000000 
  0.291200000000000   0.871000000000000   0.739500000000000 
  0.708800000000000   0.129000000000000   0.260500000000000 
  0.208800000000000   0.371000000000000   0.760500000000000 
  0.985500000000000   0.607700000000000   0.258700000000000 
  0.485500000000000   0.892300000000000   0.758700000000000 
  0.514500000000000   0.107700000000000   0.241300000000000 
  0.014500000000000   0.392300000000000   0.741300000000000 
  0.850200000000000   0.641100000000000   0.095000000000000 
  0.350200000000000   0.858900000000000   0.595000000000000 
  0.649800000000000   0.141100000000000   0.405000000000000 
  0.149800000000000   0.358900000000000   0.905000000000000 
  0.891700000000000   0.758700000000000   0.153400000000000 
  0.391700000000000   0.741300000000000   0.653400000000000 
  0.608300000000000   0.258700000000000   0.346600000000000 
  0.108300000000000   0.241300000000000   0.846600000000000 
  0.136300000000000   0.580200000000000   0.116200000000000 
  0.636300000000000   0.919800000000000   0.616200000000000 
  0.363700000000000   0.080200000000000   0.383800000000000 
  0.863700000000000   0.419800000000000   0.883800000000000 
  0.106200000000000   0.708100000000000   0.066900000000000 
  0.606200000000000   0.791900000000000   0.566900000000000 
  0.393800000000000   0.208100000000000   0.433100000000000 
  0.893800000000000   0.291900000000000   0.933100000000000 
  0.330100000000000   0.729600000000000   0.158600000000000 
  0.830100000000000   0.770400000000000   0.658600000000000 
  0.169900000000000   0.229600000000000   0.341400000000000 
  0.669900000000000   0.270400000000000   0.841400000000000 
  0.235700000000000   0.691600000000000   0.228300000000000 
  0.735700000000000   0.808400000000000   0.728300000000000 
  0.264300000000000   0.191600000000000   0.271700000000000 
  0.764300000000000   0.308400000000000   0.771700000000000 
  0.198400000000000   0.812700000000000   0.186300000000000 
  0.698400000000000   0.687300000000000   0.686300000000000 
  0.301600000000000   0.312700000000000   0.313700000000000 
  0.801600000000000   0.187300000000000   0.813700000000000 
  0.168400000000000   0.972400000000000   0.066700000000000 
  0.668400000000000   0.527600000000000   0.566700000000000 
  0.331600000000000   0.472400000000000   0.433300000000000 
  0.831600000000000   0.027600000000000   0.933300000000000 
  0.656400000000000   0.707800000000000   0.961400000000000 
  0.156400000000000   0.792200000000000   0.461400000000000 
  0.843600000000000   0.207800000000000   0.538600000000000 
  0.343600000000000   0.292200000000000   0.038600000000000 
  0.088200000000000   0.911600000000000   0.895200000000000 
  0.588200000000000   0.588400000000000   0.395200000000000 
  0.411800000000000   0.411600000000000   0.604800000000000 
  0.911800000000000   0.088400000000000   0.104800000000000 
  0.198200000000000   0.179300000000000   0.145900000000000 
  0.698200000000000   0.320700000000000   0.645900000000000 
  0.301800000000000   0.679300000000000   0.354100000000000 
  0.801800000000000   0.820700000000000   0.854100000000000 
  0.400500000000000   0.840800000000000   0.974800000000000 
  0.900500000000000   0.659200000000000   0.474800000000000 
  0.099500000000000   0.340800000000000   0.525200000000000 
  0.599500000000000   0.159200000000000   0.025200000000000 
  0.511600000000000   0.699300000000000   0.092700000000000 
  0.011600000000000   0.800700000000000   0.592700000000000 
  0.988400000000000   0.199300000000000   0.407300000000000 
  0.488400000000000   0.300700000000000   0.907300000000000 
  0.106700000000000   0.981400000000000   0.214900000000000 
  0.606700000000000   0.518600000000000   0.714900000000000 
  0.393300000000000   0.481400000000000   0.285100000000000 
  0.893300000000000   0.018600000000000   0.785100000000000 
  0.670100000000000   0.895600000000000   0.058500000000000 
  0.170100000000000   0.604400000000000   0.558500000000000 
  0.829900000000000   0.395600000000000   0.441500000000000 
  0.329900000000000   0.104400000000000   0.941500000000000 
  0.559090000000000   0.784020000000000   0.023960000000000 
  0.059090000000000   0.715980000000000   0.523960000000000 
  0.940910000000000   0.284020000000000   0.476040000000000 
  0.440910000000000   0.215980000000000   0.976040000000000 
  0.096460000000000   0.055630000000000   0.134850000000000 
  0.596460000000000   0.444370000000000   0.634850000000000 
  0.403540000000000   0.555630000000000   0.365150000000000 
  0.903540000000000   0.944370000000000   0.865150000000000 
  0.565300000000000   0.452500000000000   0.146400000000000 
  0.065300000000000   0.047500000000000   0.646400000000000 
  0.934700000000000   0.952500000000000   0.353600000000000 
  0.434700000000000   0.547500000000000   0.853600000000000 
  0.229000000000000   0.731800000000000   0.179300000000000 
  0.729000000000000   0.768200000000000   0.679300000000000 
  0.271000000000000   0.231800000000000   0.320700000000000 
  0.771000000000000   0.268200000000000   0.820700000000000 
  0.737200000000000   0.393600000000000   0.151800000000000 
  0.237200000000000   0.106400000000000   0.651800000000000 
  0.762800000000000   0.893600000000000   0.348200000000000 
  0.262800000000000   0.606400000000000   0.848200000000000 
  0.861800000000000   0.448800000000000   0.219400000000000 
  0.361800000000000   0.051200000000000   0.719400000000000 
  0.638200000000000   0.948800000000000   0.280600000000000 
  0.138200000000000   0.551200000000000   0.780600000000000 
  0.890300000000000   0.591300000000000   0.217500000000000 
  0.390300000000000   0.908700000000000   0.717500000000000 
  0.609700000000000   0.091300000000000   0.282500000000000 
  0.109700000000000   0.408700000000000   0.782500000000000 
  0.923200000000000   0.671100000000000   0.142800000000000 
  0.423200000000000   0.828900000000000   0.642800000000000 
  0.576800000000000   0.171100000000000   0.357200000000000 
  0.076800000000000   0.328900000000000   0.857200000000000 
  0.102500000000000   0.668800000000000   0.121300000000000 
  0.602500000000000   0.831200000000000   0.621300000000000 
  0.397500000000000   0.168800000000000   0.378700000000000 
  0.897500000000000   0.331200000000000   0.878700000000000 
  0.247230000000000   0.959280000000000   0.970050000000000 
  0.747230000000000   0.540720000000000   0.470050000000000 
  0.252770000000000   0.459280000000000   0.529950000000000 
  0.752770000000000   0.040720000000000   0.029950000000000 
