Generated by cif2cell 2.1.0. K Cu (C O3) F :  Mercier, N and Leblanc, M, European Journal of Solid State Inorganic Chemistry 31, 423-430 (1994).
   3.972000
  1.000000000000000   0.000000000000000   0.000000000000000
  0.000000000000000   1.268378650553877   0.000000000000000
  0.000000000000000   0.000000000000000   2.267119838872105
   C   O  Cu   F   K
   2   6   2   2   2
Direct
  0.000000000000000   0.216800000000000   0.913900000000000 
  0.000000000000000   0.783200000000000   0.413900000000000 
  0.000000000000000   0.039800000000000   0.423900000000000 
  0.000000000000000   0.960200000000000   0.923900000000000 
  0.000000000000000   0.354500000000000   0.035200000000000 
  0.000000000000000   0.645500000000000   0.535200000000000 
  0.000000000000000   0.667400000000000   0.288400000000000 
  0.000000000000000   0.332600000000000   0.788400000000000 
  0.000000000000000   0.783300000000000   0.734000000000000 
  0.000000000000000   0.216700000000000   0.234000000000000 
  0.500000000000000   0.196100000000000   0.228700000000000 
  0.500000000000000   0.803900000000000   0.728700000000000 
  0.500000000000000   0.710800000000000   0.075900000000000 
  0.500000000000000   0.289200000000000   0.575900000000000 
