Generated by cif2cell 2.1.0. Na (H C O3) :  Zachariasen, W. H., Journal of Chemical Physics 1, 634-639 (1933).
   7.510000
  1.000000000000000   0.000000000000000   0.000000000000000
  0.000000000000000   1.291611185086551   0.000000000000000
 -0.027221193341791   0.000000000000000   0.469251060906859
  Na   C   H   O
   4   4   4  12
Direct
  0.278000000000000   0.000000000000000   0.708000000000000 
  0.778000000000000   0.500000000000000   0.208000000000000 
  0.222000000000000   0.500000000000000   0.792000000000000 
  0.722000000000000   0.000000000000000   0.292000000000000 
  0.069000000000000   0.236000000000000   0.314000000000000 
  0.569000000000000   0.264000000000000   0.814000000000000 
  0.431000000000000   0.736000000000000   0.186000000000000 
  0.931000000000000   0.764000000000000   0.686000000000000 
  0.319000000000000   0.250000000000000   0.064000000000000 
  0.819000000000000   0.250000000000000   0.564000000000000 
  0.181000000000000   0.750000000000000   0.436000000000000 
  0.681000000000000   0.750000000000000   0.936000000000000 
  0.069000000000000   0.367000000000000   0.314000000000000 
  0.569000000000000   0.133000000000000   0.814000000000000 
  0.431000000000000   0.867000000000000   0.186000000000000 
  0.931000000000000   0.633000000000000   0.686000000000000 
  0.200000000000000   0.169000000000000   0.183000000000000 
  0.700000000000000   0.331000000000000   0.683000000000000 
  0.300000000000000   0.669000000000000   0.317000000000000 
  0.800000000000000   0.831000000000000   0.817000000000000 
  0.939000000000000   0.169000000000000   0.444000000000000 
  0.439000000000000   0.331000000000000   0.944000000000000 
  0.561000000000000   0.669000000000000   0.056000000000000 
  0.061000000000000   0.831000000000000   0.556000000000000 
