Generated by cif2cell 2.1.0.  :  Bachet, Bernard et al., No journal information.
  48.480000
  1.000000000000000   0.000000000000000   0.000000000000000
  0.000000000000000   0.448019801980198   0.000000000000000
  0.000000000000000   0.000000000000000   0.221534653465347
   C   O   H   N
 428 104 568  56
Direct
  0.495000000000000   0.475600000000000   0.090600000000000 
  0.995000000000000   0.024400000000000   0.909400000000000 
  0.005000000000000   0.524400000000000   0.590600000000000 
  0.505000000000000   0.975600000000000   0.409400000000000 
  0.467990000000000   0.474000000000000   0.160800000000000 
  0.967990000000000   0.026000000000000   0.839200000000000 
  0.032010000000000   0.526000000000000   0.660800000000000 
  0.532010000000000   0.974000000000000   0.339200000000000 
  0.426000000000000   0.440900000000000   0.049000000000000 
  0.926000000000000   0.059100000000000   0.951000000000000 
  0.074000000000000   0.559100000000000   0.549000000000000 
  0.574000000000000   0.940900000000000   0.451000000000000 
  0.410000000000000   0.386400000000000   0.006900000000000 
  0.910000000000000   0.113600000000000   0.993100000000000 
  0.090000000000000   0.613600000000000   0.506900000000000 
  0.590000000000000   0.886400000000000   0.493100000000000 
  0.407400000000000   0.281600000000000   0.984700000000000 
  0.907400000000000   0.218400000000000   0.015300000000000 
  0.092600000000000   0.718400000000000   0.484700000000000 
  0.592600000000000   0.781600000000000   0.515300000000000 
  0.381000000000000   0.285700000000000   0.950400000000000 
  0.881000000000000   0.214300000000000   0.049600000000000 
  0.119000000000000   0.714300000000000   0.450400000000000 
  0.619000000000000   0.785700000000000   0.549600000000000 
  0.368100000000000   0.341300000000000   0.936800000000000 
  0.868100000000000   0.158700000000000   0.063200000000000 
  0.131900000000000   0.658700000000000   0.436800000000000 
  0.631900000000000   0.841300000000000   0.563200000000000 
  0.383700000000000   0.394000000000000   0.962100000000000 
  0.883700000000000   0.106000000000000   0.037900000000000 
  0.116300000000000   0.606000000000000   0.462100000000000 
  0.616300000000000   0.894000000000000   0.537900000000000 
  0.472320000000000   0.464600000000000   0.301800000000000 
  0.972320000000000   0.035400000000000   0.698200000000000 
  0.027680000000000   0.535400000000000   0.801800000000000 
  0.527680000000000   0.964600000000000   0.198200000000000 
  0.450500000000000   0.437600000000000   0.498400000000000 
  0.950500000000000   0.062400000000000   0.501600000000000 
  0.049500000000000   0.562400000000000   0.998400000000000 
  0.549500000000000   0.937600000000000   0.001600000000000 
  0.454130000000000   0.367900000000000   0.518200000000000 
  0.954130000000000   0.132100000000000   0.481800000000000 
  0.045870000000000   0.632100000000000   0.018200000000000 
  0.545870000000000   0.867900000000000   0.981800000000000 
  0.482600000000000   0.280500000000000   0.561000000000000 
  0.982600000000000   0.219500000000000   0.439000000000000 
  0.017400000000000   0.719500000000000   0.061000000000000 
  0.517400000000000   0.780500000000000   0.939000000000000 
  0.476890000000000   0.252200000000000   0.432000000000000 
  0.976890000000000   0.247800000000000   0.568000000000000 
  0.023110000000000   0.747800000000000   0.932000000000000 
  0.523110000000000   0.752200000000000   0.068000000000000 
  0.460600000000000   0.156500000000000   0.531000000000000 
  0.960600000000000   0.343500000000000   0.469000000000000 
  0.039400000000000   0.843500000000000   0.031000000000000 
  0.539400000000000   0.656500000000000   0.969000000000000 
  0.461780000000000   0.172600000000000   0.295900000000000 
  0.961780000000000   0.327400000000000   0.704100000000000 
  0.038220000000000   0.827400000000000   0.795900000000000 
  0.538220000000000   0.672600000000000   0.204100000000000 
  0.489240000000000   0.148100000000000   0.253200000000000 
  0.989240000000000   0.351900000000000   0.746800000000000 
  0.010760000000000   0.851900000000000   0.753200000000000 
  0.510760000000000   0.648100000000000   0.246800000000000 
  0.524500000000000   0.135500000000000   0.091000000000000 
  0.024500000000000   0.364500000000000   0.909000000000000 
  0.975500000000000   0.864500000000000   0.591000000000000 
  0.475500000000000   0.635500000000000   0.409000000000000 
  0.517900000000000   0.103500000000000   0.970000000000000 
  0.017900000000000   0.396500000000000   0.030000000000000 
  0.982100000000000   0.896500000000000   0.470000000000000 
  0.482100000000000   0.603500000000000   0.530000000000000 
  0.501000000000000   0.143200000000000   0.883000000000000 
  0.001000000000000   0.356800000000000   0.117000000000000 
  0.999000000000000   0.856800000000000   0.383000000000000 
  0.499000000000000   0.643200000000000   0.617000000000000 
  0.480080000000000   0.185900000000000   0.938000000000000 
  0.980080000000000   0.314100000000000   0.062000000000000 
  0.019920000000000   0.814100000000000   0.438000000000000 
  0.519920000000000   0.685900000000000   0.562000000000000 
  0.489350000000000   0.214600000000000   0.059500000000000 
  0.989350000000000   0.285400000000000   0.940500000000000 
  0.010650000000000   0.785400000000000   0.559500000000000 
  0.510650000000000   0.714600000000000   0.440500000000000 
  0.512800000000000   0.260800000000000   0.034000000000000 
  0.012800000000000   0.239200000000000   0.966000000000000 
  0.987200000000000   0.739200000000000   0.534000000000000 
  0.487200000000000   0.760800000000000   0.466000000000000 
  0.541900000000000   0.340900000000000   0.115000000000000 
  0.041900000000000   0.159100000000000   0.885000000000000 
  0.958100000000000   0.659100000000000   0.615000000000000 
  0.458100000000000   0.840900000000000   0.385000000000000 
  0.532400000000000   0.407100000000000   0.094100000000000 
  0.032400000000000   0.092900000000000   0.905900000000000 
  0.967600000000000   0.592900000000000   0.594100000000000 
  0.467600000000000   0.907100000000000   0.405900000000000 
  0.561200000000000   0.337300000000000   0.228900000000000 
  0.061200000000000   0.162700000000000   0.771100000000000 
  0.938800000000000   0.662700000000000   0.728900000000000 
  0.438800000000000   0.837300000000000   0.271100000000000 
  0.559100000000000   0.374000000000000   0.327400000000000 
  0.059100000000000   0.126000000000000   0.672600000000000 
  0.940900000000000   0.626000000000000   0.827400000000000 
  0.440900000000000   0.874000000000000   0.172600000000000 
  0.576900000000000   0.367900000000000   0.426100000000000 
  0.076900000000000   0.132100000000000   0.573900000000000 
  0.923100000000000   0.632100000000000   0.926100000000000 
  0.423100000000000   0.867900000000000   0.073900000000000 
  0.598300000000000   0.327000000000000   0.422000000000000 
  0.098300000000000   0.173000000000000   0.578000000000000 
  0.901700000000000   0.673000000000000   0.922000000000000 
  0.401700000000000   0.827000000000000   0.078000000000000 
  0.598800000000000   0.289000000000000   0.326000000000000 
  0.098800000000000   0.211000000000000   0.674000000000000 
  0.901200000000000   0.711000000000000   0.826000000000000 
  0.401200000000000   0.789000000000000   0.174000000000000 
  0.583100000000000   0.296900000000000   0.216000000000000 
  0.083100000000000   0.203100000000000   0.784000000000000 
  0.916900000000000   0.703100000000000   0.716000000000000 
  0.416900000000000   0.796900000000000   0.284000000000000 
  0.439700000000000   0.120600000000000   0.292000000000000 
  0.939700000000000   0.379400000000000   0.708000000000000 
  0.060300000000000   0.879400000000000   0.792000000000000 
  0.560300000000000   0.620600000000000   0.208000000000000 
  0.433380000000000   0.100600000000000   0.159500000000000 
  0.933380000000000   0.399400000000000   0.840500000000000 
  0.066620000000000   0.899400000000000   0.659500000000000 
  0.566620000000000   0.600600000000000   0.340500000000000 
  0.412370000000000   0.126900000000000   0.092000000000000 
  0.912370000000000   0.373100000000000   0.908000000000000 
  0.087630000000000   0.873100000000000   0.592000000000000 
  0.587630000000000   0.626900000000000   0.408000000000000 
  0.407420000000000   0.109500000000000   0.970600000000000 
  0.907420000000000   0.390500000000000   0.029400000000000 
  0.092580000000000   0.890500000000000   0.470600000000000 
  0.592580000000000   0.609500000000000   0.529400000000000 
  0.423310000000000   0.065900000000000   0.911000000000000 
  0.923310000000000   0.434100000000000   0.089000000000000 
  0.076690000000000   0.934100000000000   0.411000000000000 
  0.576690000000000   0.565900000000000   0.589000000000000 
  0.438600000000000   0.019100000000000   0.717100000000000 
  0.938600000000000   0.480900000000000   0.282900000000000 
  0.061400000000000   0.980900000000000   0.217100000000000 
  0.561400000000000   0.519100000000000   0.782900000000000 
  0.444250000000000   0.037800000000000   0.981000000000000 
  0.944250000000000   0.462200000000000   0.019000000000000 
  0.055750000000000   0.962200000000000   0.481000000000000 
  0.555750000000000   0.537800000000000   0.519000000000000 
  0.449000000000000   0.055200000000000   0.102000000000000 
  0.949000000000000   0.444800000000000   0.898000000000000 
  0.051000000000000   0.944800000000000   0.602000000000000 
  0.551000000000000   0.555200000000000   0.398000000000000 
  0.513200000000000   0.275100000000000   0.592400000000000 
  0.013200000000000   0.224900000000000   0.407600000000000 
  0.986800000000000   0.724900000000000   0.092400000000000 
  0.486800000000000   0.775100000000000   0.907600000000000 
  0.519300000000000   0.333600000000000   0.663500000000000 
  0.019300000000000   0.166400000000000   0.336500000000000 
  0.980700000000000   0.666400000000000   0.163500000000000 
  0.480700000000000   0.833600000000000   0.836500000000000 
  0.502900000000000   0.381000000000000   0.596800000000000 
  0.002900000000000   0.119000000000000   0.403200000000000 
  0.997100000000000   0.619000000000000   0.096800000000000 
  0.497100000000000   0.881000000000000   0.903200000000000 
  0.423700000000000   0.459600000000000   0.561000000000000 
  0.923700000000000   0.040400000000000   0.439000000000000 
  0.076300000000000   0.540400000000000   0.061000000000000 
  0.576300000000000   0.959600000000000   0.939000000000000 
  0.424300000000000   0.452900000000000   0.703800000000000 
  0.924300000000000   0.047100000000000   0.296200000000000 
  0.075700000000000   0.547100000000000   0.203800000000000 
  0.575700000000000   0.952900000000000   0.796200000000000 
  0.491300000000000   0.491600000000000   0.953900000000000 
  0.991300000000000   0.008400000000000   0.046100000000000 
  0.008700000000000   0.508400000000000   0.453900000000000 
  0.508700000000000   0.991600000000000   0.546100000000000 
  0.371300000000000   0.407300000000000   0.269000000000000 
  0.871300000000000   0.092700000000000   0.731000000000000 
  0.128700000000000   0.592700000000000   0.769000000000000 
  0.628700000000000   0.907300000000000   0.231000000000000 
  0.322000000000000   0.417200000000000   0.193900000000000 
  0.822000000000000   0.082800000000000   0.806100000000000 
  0.178000000000000   0.582800000000000   0.693900000000000 
  0.678000000000000   0.917200000000000   0.306100000000000 
  0.310500000000000   0.468000000000000   0.120000000000000 
  0.810500000000000   0.032000000000000   0.880000000000000 
  0.189500000000000   0.532000000000000   0.620000000000000 
  0.689500000000000   0.968000000000000   0.380000000000000 
  0.322700000000000   0.522400000000000   0.170300000000000 
  0.822700000000000   0.977600000000000   0.829700000000000 
  0.177300000000000   0.477600000000000   0.670300000000000 
  0.677300000000000   0.022400000000000   0.329700000000000 
  0.349300000000000   0.505800000000000   0.237400000000000 
  0.849300000000000   0.994200000000000   0.762600000000000 
  0.150700000000000   0.494200000000000   0.737400000000000 
  0.650700000000000   0.005800000000000   0.262600000000000 
  0.349900000000000   0.527300000000000   0.371900000000000 
  0.849900000000000   0.972700000000000   0.628100000000000 
  0.150100000000000   0.472700000000000   0.871900000000000 
  0.650100000000000   0.027300000000000   0.128100000000000 
  0.350500000000000   0.615200000000000   0.495700000000000 
  0.850500000000000   0.884800000000000   0.504300000000000 
  0.149500000000000   0.384800000000000   0.995700000000000 
  0.649500000000000   0.115200000000000   0.004300000000000 
  0.321100000000000   0.637300000000000   0.524100000000000 
  0.821100000000000   0.862700000000000   0.475900000000000 
  0.178900000000000   0.362700000000000   0.024100000000000 
  0.678900000000000   0.137300000000000   0.975900000000000 
  0.303100000000000   0.579000000000000   0.530400000000000 
  0.803100000000000   0.921000000000000   0.469600000000000 
  0.196900000000000   0.421000000000000   0.030400000000000 
  0.696900000000000   0.079000000000000   0.969600000000000 
  0.282300000000000   0.565600000000000   0.456100000000000 
  0.782300000000000   0.934400000000000   0.543900000000000 
  0.217700000000000   0.434400000000000   0.956100000000000 
  0.717700000000000   0.065600000000000   0.043900000000000 
  0.266800000000000   0.507200000000000   0.462700000000000 
  0.766800000000000   0.992800000000000   0.537300000000000 
  0.233200000000000   0.492800000000000   0.962700000000000 
  0.733200000000000   0.007200000000000   0.037300000000000 
  0.232700000000000   0.441500000000000   0.358600000000000 
  0.732700000000000   0.058500000000000   0.641400000000000 
  0.267300000000000   0.558500000000000   0.858600000000000 
  0.767300000000000   0.941500000000000   0.141400000000000 
  0.246200000000000   0.394800000000000   0.276000000000000 
  0.746200000000000   0.105200000000000   0.724000000000000 
  0.253800000000000   0.605200000000000   0.776000000000000 
  0.753800000000000   0.894800000000000   0.224000000000000 
  0.248100000000000   0.334900000000000   0.304300000000000 
  0.748100000000000   0.165100000000000   0.695700000000000 
  0.251900000000000   0.665100000000000   0.804300000000000 
  0.751900000000000   0.834900000000000   0.195700000000000 
  0.258600000000000   0.283800000000000   0.224000000000000 
  0.758600000000000   0.216200000000000   0.776000000000000 
  0.241400000000000   0.716200000000000   0.724000000000000 
  0.741400000000000   0.783800000000000   0.276000000000000 
  0.258900000000000   0.227700000000000   0.268000000000000 
  0.758900000000000   0.272300000000000   0.732000000000000 
  0.241100000000000   0.772300000000000   0.768000000000000 
  0.741100000000000   0.727700000000000   0.232000000000000 
  0.267200000000000   0.169600000000000   0.202800000000000 
  0.767200000000000   0.330400000000000   0.797200000000000 
  0.232800000000000   0.830400000000000   0.702800000000000 
  0.732800000000000   0.669600000000000   0.297200000000000 
  0.294000000000000   0.141400000000000   0.250700000000000 
  0.794000000000000   0.358600000000000   0.749300000000000 
  0.206000000000000   0.858600000000000   0.750700000000000 
  0.706000000000000   0.641400000000000   0.249300000000000 
  0.318400000000000   0.177100000000000   0.228300000000000 
  0.818400000000000   0.322900000000000   0.771700000000000 
  0.181600000000000   0.822900000000000   0.728300000000000 
  0.681600000000000   0.677100000000000   0.271700000000000 
  0.334600000000000   0.200300000000000   0.340400000000000 
  0.834600000000000   0.299700000000000   0.659600000000000 
  0.165400000000000   0.799700000000000   0.840400000000000 
  0.665400000000000   0.700300000000000   0.159600000000000 
  0.353300000000000   0.249900000000000   0.312800000000000 
  0.853300000000000   0.250100000000000   0.687200000000000 
  0.146700000000000   0.750100000000000   0.812800000000000 
  0.646700000000000   0.749900000000000   0.187200000000000 
  0.390600000000000   0.300000000000000   0.290600000000000 
  0.890600000000000   0.200000000000000   0.709400000000000 
  0.109400000000000   0.700000000000000   0.790600000000000 
  0.609400000000000   0.800000000000000   0.209400000000000 
  0.369380000000000   0.340600000000000   0.282000000000000 
  0.869380000000000   0.159400000000000   0.718000000000000 
  0.130620000000000   0.659400000000000   0.782000000000000 
  0.630620000000000   0.840600000000000   0.218000000000000 
  0.268700000000000   0.300700000000000   0.095400000000000 
  0.768700000000000   0.199300000000000   0.904600000000000 
  0.231300000000000   0.699300000000000   0.595400000000000 
  0.731300000000000   0.800700000000000   0.404600000000000 
  0.310900000000000   0.684500000000000   0.434000000000000 
  0.810900000000000   0.815500000000000   0.566000000000000 
  0.189100000000000   0.315500000000000   0.934000000000000 
  0.689100000000000   0.184500000000000   0.066000000000000 
  0.372600000000000   0.665400000000000   0.496000000000000 
  0.872600000000000   0.834600000000000   0.504000000000000 
  0.127400000000000   0.334600000000000   0.996000000000000 
  0.627400000000000   0.165400000000000   0.004000000000000 
  0.400600000000000   0.638900000000000   0.479000000000000 
  0.900600000000000   0.861100000000000   0.521000000000000 
  0.099400000000000   0.361100000000000   0.979000000000000 
  0.599400000000000   0.138900000000000   0.021000000000000 
  0.372000000000000   0.705000000000000   0.583000000000000 
  0.872000000000000   0.795000000000000   0.417000000000000 
  0.128000000000000   0.295000000000000   0.083000000000000 
  0.628000000000000   0.205000000000000   0.917000000000000 
  0.338310000000000   0.979400000000000   0.387300000000000 
  0.838310000000000   0.520600000000000   0.612700000000000 
  0.161690000000000   0.020600000000000   0.887300000000000 
  0.661690000000000   0.479400000000000   0.112700000000000 
  0.316600000000000   0.928600000000000   0.382000000000000 
  0.816600000000000   0.571400000000000   0.618000000000000 
  0.183400000000000   0.071400000000000   0.882000000000000 
  0.683400000000000   0.428600000000000   0.118000000000000 
  0.291500000000000   0.947000000000000   0.454100000000000 
  0.791500000000000   0.553000000000000   0.545900000000000 
  0.208500000000000   0.053000000000000   0.954100000000000 
  0.708500000000000   0.447000000000000   0.045900000000000 
  0.270800000000000   0.979100000000000   0.410000000000000 
  0.770800000000000   0.520900000000000   0.590000000000000 
  0.229200000000000   0.020900000000000   0.910000000000000 
  0.729200000000000   0.479100000000000   0.090000000000000 
  0.247100000000000   0.999400000000000   0.487700000000000 
  0.747100000000000   0.500600000000000   0.512300000000000 
  0.252900000000000   0.000600000000000   0.987700000000000 
  0.752900000000000   0.499400000000000   0.012300000000000 
  0.211000000000000   0.076200000000000   0.517100000000000 
  0.711000000000000   0.423800000000000   0.482900000000000 
  0.289000000000000   0.923800000000000   0.017100000000000 
  0.789000000000000   0.576200000000000   0.982900000000000 
  0.223900000000000   0.119800000000000   0.609800000000000 
  0.723900000000000   0.380200000000000   0.390200000000000 
  0.276100000000000   0.880200000000000   0.109800000000000 
  0.776100000000000   0.619800000000000   0.890200000000000 
  0.221300000000000   0.179600000000000   0.605900000000000 
  0.721300000000000   0.320400000000000   0.394100000000000 
  0.278700000000000   0.820400000000000   0.105900000000000 
  0.778700000000000   0.679600000000000   0.894100000000000 
  0.236460000000000   0.222800000000000   0.682400000000000 
  0.736460000000000   0.277200000000000   0.317600000000000 
  0.263540000000000   0.777200000000000   0.182400000000000 
  0.763540000000000   0.722800000000000   0.817600000000000 
  0.252200000000000   0.200100000000000   0.791300000000000 
  0.752200000000000   0.299900000000000   0.208700000000000 
  0.247800000000000   0.799900000000000   0.291300000000000 
  0.747800000000000   0.700100000000000   0.708700000000000 
  0.237100000000000   0.282900000000000   0.645000000000000 
  0.737100000000000   0.217100000000000   0.355000000000000 
  0.262900000000000   0.717100000000000   0.145000000000000 
  0.762900000000000   0.782900000000000   0.855000000000000 
  0.254500000000000   0.332900000000000   0.700800000000000 
  0.754500000000000   0.167100000000000   0.299200000000000 
  0.245500000000000   0.667100000000000   0.200800000000000 
  0.745500000000000   0.832900000000000   0.799200000000000 
  0.282700000000000   0.330600000000000   0.642000000000000 
  0.782700000000000   0.169400000000000   0.358000000000000 
  0.217300000000000   0.669400000000000   0.142000000000000 
  0.717300000000000   0.830600000000000   0.858000000000000 
  0.304400000000000   0.369100000000000   0.708300000000000 
  0.804400000000000   0.130900000000000   0.291700000000000 
  0.195600000000000   0.630900000000000   0.208300000000000 
  0.695600000000000   0.869100000000000   0.791700000000000 
  0.331600000000000   0.376400000000000   0.646900000000000 
  0.831600000000000   0.123600000000000   0.353100000000000 
  0.168400000000000   0.623600000000000   0.146900000000000 
  0.668400000000000   0.876400000000000   0.853100000000000 
  0.347600000000000   0.317800000000000   0.645000000000000 
  0.847600000000000   0.182200000000000   0.355000000000000 
  0.152400000000000   0.682200000000000   0.145000000000000 
  0.652400000000000   0.817800000000000   0.855000000000000 
  0.384500000000000   0.264800000000000   0.612800000000000 
  0.884500000000000   0.235200000000000   0.387200000000000 
  0.115500000000000   0.735200000000000   0.112800000000000 
  0.615500000000000   0.764800000000000   0.887200000000000 
  0.364610000000000   0.226800000000000   0.649900000000000 
  0.864610000000000   0.273200000000000   0.350100000000000 
  0.135390000000000   0.773200000000000   0.149900000000000 
  0.635390000000000   0.726800000000000   0.850100000000000 
  0.366000000000000   0.158800000000000   0.655000000000000 
  0.866000000000000   0.341200000000000   0.345000000000000 
  0.134000000000000   0.841200000000000   0.155000000000000 
  0.634000000000000   0.658800000000000   0.845000000000000 
  0.346100000000000   0.059700000000000   0.695000000000000 
  0.846100000000000   0.440300000000000   0.305000000000000 
  0.153900000000000   0.940300000000000   0.195000000000000 
  0.653900000000000   0.559700000000000   0.805000000000000 
  0.336850000000000   0.049600000000000   0.563000000000000 
  0.836850000000000   0.450400000000000   0.437000000000000 
  0.163150000000000   0.950400000000000   0.063000000000000 
  0.663150000000000   0.549600000000000   0.937000000000000 
  0.324500000000000   0.038600000000000   0.787200000000000 
  0.824500000000000   0.461400000000000   0.212800000000000 
  0.175500000000000   0.961400000000000   0.287200000000000 
  0.675500000000000   0.538600000000000   0.712800000000000 
  0.315700000000000   0.092500000000000   0.858000000000000 
  0.815700000000000   0.407500000000000   0.142000000000000 
  0.184300000000000   0.907500000000000   0.358000000000000 
  0.684300000000000   0.592500000000000   0.642000000000000 
  0.326300000000000   0.147800000000000   0.802700000000000 
  0.826300000000000   0.352200000000000   0.197300000000000 
  0.173700000000000   0.852200000000000   0.302700000000000 
  0.673700000000000   0.647800000000000   0.697300000000000 
  0.327600000000000   0.865300000000000   0.428100000000000 
  0.827600000000000   0.634700000000000   0.571900000000000 
  0.172400000000000   0.134700000000000   0.928100000000000 
  0.672400000000000   0.365300000000000   0.071900000000000 
  0.365500000000000   0.965400000000000   0.323100000000000 
  0.865500000000000   0.534600000000000   0.676900000000000 
  0.134500000000000   0.034600000000000   0.823100000000000 
  0.634500000000000   0.465400000000000   0.176900000000000 
  0.386200000000000   0.015800000000000   0.347400000000000 
  0.886200000000000   0.484200000000000   0.652600000000000 
  0.113800000000000   0.984200000000000   0.847400000000000 
  0.613800000000000   0.515800000000000   0.152600000000000 
  0.360700000000000   0.957000000000000   0.187400000000000 
  0.860700000000000   0.543000000000000   0.812600000000000 
  0.139300000000000   0.043000000000000   0.687400000000000 
  0.639300000000000   0.457000000000000   0.312600000000000 
  0.116900000000000   0.116800000000000   0.235000000000000 
  0.616900000000000   0.383200000000000   0.765000000000000 
  0.383100000000000   0.883200000000000   0.735000000000000 
  0.883100000000000   0.616800000000000   0.265000000000000 
  0.180700000000000   0.204900000000000   0.265000000000000 
  0.680700000000000   0.295100000000000   0.735000000000000 
  0.319300000000000   0.795100000000000   0.765000000000000 
  0.819300000000000   0.704900000000000   0.235000000000000 
  0.385700000000000   0.637800000000000   0.981000000000000 
  0.885700000000000   0.862200000000000   0.019000000000000 
  0.114300000000000   0.362200000000000   0.481000000000000 
  0.614300000000000   0.137800000000000   0.519000000000000 
  0.417500000000000   0.650100000000000   0.959000000000000 
  0.917500000000000   0.849900000000000   0.041000000000000 
  0.082500000000000   0.349900000000000   0.459000000000000 
  0.582500000000000   0.150100000000000   0.541000000000000 
  0.096400000000000   0.135200000000000   0.147000000000000 
  0.596400000000000   0.364800000000000   0.853000000000000 
  0.403600000000000   0.864800000000000   0.647000000000000 
  0.903600000000000   0.635200000000000   0.353000000000000 
  0.157300000000000   0.165200000000000   0.325000000000000 
  0.657300000000000   0.334800000000000   0.675000000000000 
  0.342700000000000   0.834800000000000   0.825000000000000 
  0.842700000000000   0.665200000000000   0.175000000000000 
  0.359900000000000   0.642000000000000   0.950000000000000 
  0.859900000000000   0.858000000000000   0.050000000000000 
  0.140100000000000   0.358000000000000   0.450000000000000 
  0.640100000000000   0.142000000000000   0.550000000000000 
  0.505760000000000   0.412900000000000   0.102700000000000 
  0.005760000000000   0.087100000000000   0.897300000000000 
  0.994240000000000   0.587100000000000   0.602700000000000 
  0.494240000000000   0.912900000000000   0.397300000000000 
  0.417590000000000   0.493800000000000   0.031200000000000 
  0.917590000000000   0.006200000000000   0.968800000000000 
  0.082410000000000   0.506200000000000   0.531200000000000 
  0.582410000000000   0.993800000000000   0.468800000000000 
  0.372490000000000   0.449900000000000   0.948600000000000 
  0.872490000000000   0.050100000000000   0.051400000000000 
  0.127510000000000   0.550100000000000   0.448600000000000 
  0.627510000000000   0.949900000000000   0.551400000000000 
  0.494640000000000   0.472900000000000   0.348600000000000 
  0.994640000000000   0.027100000000000   0.651400000000000 
  0.005360000000000   0.527100000000000   0.848600000000000 
  0.505360000000000   0.972900000000000   0.151400000000000 
  0.435170000000000   0.332800000000000   0.493600000000000 
  0.935170000000000   0.167200000000000   0.506400000000000 
  0.064830000000000   0.667200000000000   0.993600000000000 
  0.564830000000000   0.832800000000000   0.006400000000000 
  0.483550000000000   0.281500000000000   0.335800000000000 
  0.983550000000000   0.218500000000000   0.664200000000000 
  0.016450000000000   0.718500000000000   0.835800000000000 
  0.516450000000000   0.781500000000000   0.164200000000000 
  0.501250000000000   0.110700000000000   0.316900000000000 
  0.001250000000000   0.389300000000000   0.683100000000000 
  0.998750000000000   0.889300000000000   0.816900000000000 
  0.498750000000000   0.610700000000000   0.183100000000000 
  0.502800000000000   0.134900000000000   0.768400000000000 
  0.002800000000000   0.365100000000000   0.231600000000000 
  0.997200000000000   0.865100000000000   0.268400000000000 
  0.497200000000000   0.634900000000000   0.731600000000000 
  0.548360000000000   0.447900000000000   0.072200000000000 
  0.048360000000000   0.052100000000000   0.927800000000000 
  0.951640000000000   0.552100000000000   0.572200000000000 
  0.451640000000000   0.947900000000000   0.427800000000000 
  0.524310000000000   0.262400000000000   0.933500000000000 
  0.024310000000000   0.237600000000000   0.066500000000000 
  0.975690000000000   0.737600000000000   0.433500000000000 
  0.475690000000000   0.762400000000000   0.566500000000000 
  0.393700000000000   0.432600000000000   0.283600000000000 
  0.893700000000000   0.067400000000000   0.716400000000000 
  0.106300000000000   0.567400000000000   0.783600000000000 
  0.606300000000000   0.932600000000000   0.216400000000000 
  0.351360000000000   0.586900000000000   0.378100000000000 
  0.851360000000000   0.913100000000000   0.621900000000000 
  0.148640000000000   0.413100000000000   0.878100000000000 
  0.648640000000000   0.086900000000000   0.121900000000000 
  0.270670000000000   0.470200000000000   0.550600000000000 
  0.770670000000000   0.029800000000000   0.449400000000000 
  0.229330000000000   0.529800000000000   0.050600000000000 
  0.729330000000000   0.970200000000000   0.949400000000000 
  0.245730000000000   0.126900000000000   0.216900000000000 
  0.745730000000000   0.373100000000000   0.783100000000000 
  0.254270000000000   0.873100000000000   0.716900000000000 
  0.754270000000000   0.626900000000000   0.283100000000000 
  0.325700000000000   0.191400000000000   0.125000000000000 
  0.825700000000000   0.308600000000000   0.875000000000000 